(set-logic QF_FPABV)
(declare-fun b1256 () (_ FP 8 24))
(declare-fun b489 () (_ FP 11 53))
(declare-fun b1452 () (_ FP 8 24))
(declare-fun b414 () (_ FP 11 53))
(declare-fun b842 () (_ FP 8 24))
(declare-fun b1293 () (_ FP 8 24))
(declare-fun b1323 () (_ FP 8 24))
(declare-fun b338 () (_ FP 11 53))
(declare-fun b470 () (_ FP 11 53))
(declare-fun b1318 () (_ FP 8 24))
(declare-fun b245 () (_ FP 8 24))
(declare-fun b1477 () (_ FP 8 24))
(declare-fun b622 () (_ FP 11 53))
(declare-fun b1333 () (_ FP 8 24))
(declare-fun b1417 () (_ FP 8 24))
(declare-fun b603 () (_ FP 11 53))
(declare-fun b1402 () (_ FP 8 24))
(declare-fun b508 () (_ FP 11 53))
(declare-fun b1298 () (_ FP 8 24))
(declare-fun b527 () (_ FP 11 53))
(declare-fun b1422 () (_ FP 8 24))
(declare-fun b1427 () (_ FP 8 24))
(declare-fun b1373 () (_ FP 8 24))
(declare-fun b1378 () (_ FP 8 24))
(declare-fun b1263 () (_ FP 8 24))
(declare-fun b1387 () (_ FP 8 24))
(declare-fun b273 () (_ FP 11 53))
(declare-fun b1363 () (_ FP 8 24))
(declare-fun b1283 () (_ FP 8 24))
(declare-fun b716 () (_ FP 11 53))
(declare-fun b584 () (_ FP 11 53))
(declare-fun b697 () (_ FP 11 53))
(declare-fun b1288 () (_ FP 8 24))
(declare-fun b1268 () (_ FP 8 24))
(declare-fun b300 () (_ FP 11 53))
(declare-fun b395 () (_ FP 11 53))
(declare-fun b432 () (_ FP 11 53))
(declare-fun b1407 () (_ FP 8 24))
(declare-fun b1502 () (_ FP 8 24))
(declare-fun b1338 () (_ FP 8 24))
(declare-fun b885 () (_ FP 11 53))
(declare-fun b1353 () (_ FP 8 24))
(declare-fun b1308 () (_ FP 8 24))
(declare-fun b261 () (_ FP 11 53))
(declare-fun b1313 () (_ FP 8 24))
(declare-fun b1328 () (_ FP 8 24))
(declare-fun b1482 () (_ FP 8 24))
(declare-fun b1412 () (_ FP 8 24))
(declare-fun b451 () (_ FP 11 53))
(declare-fun b1442 () (_ FP 8 24))
(declare-fun b1437 () (_ FP 8 24))
(declare-fun b376 () (_ FP 11 53))
(declare-fun b243 () (_ FP 8 24))
(declare-fun b1487 () (_ FP 8 24))
(declare-fun b1358 () (_ FP 8 24))
(declare-fun b678 () (_ FP 11 53))
(declare-fun b546 () (_ FP 11 53))
(declare-fun b1497 () (_ FP 8 24))
(declare-fun b640 () (_ FP 11 53))
(declare-fun b1507 () (_ FP 8 24))
(declare-fun b1467 () (_ FP 8 24))
(declare-fun b1432 () (_ FP 8 24))
(declare-fun b357 () (_ FP 11 53))
(declare-fun b1273 () (_ FP 8 24))
(declare-fun b1472 () (_ FP 8 24))
(declare-fun b565 () (_ FP 11 53))
(declare-fun b1457 () (_ FP 8 24))
(declare-fun b1447 () (_ FP 8 24))
(declare-fun b659 () (_ FP 11 53))
(declare-fun b1492 () (_ FP 8 24))
(declare-fun b1343 () (_ FP 8 24))
(declare-fun b1303 () (_ FP 8 24))
(declare-fun b1368 () (_ FP 8 24))
(declare-fun b319 () (_ FP 11 53))
(declare-fun b1278 () (_ FP 8 24))
(declare-fun b1348 () (_ FP 8 24))
(declare-fun b1462 () (_ FP 8 24))
(declare-fun b1261 () (_ FP 8 24))
(declare-fun b1392 () (_ FP 8 24))
(declare-fun b1397 () (_ FP 8 24))
(declare-fun b282 () (_ FP 11 53))
(define-fun .3 () RoundingMode roundNearestTiesToEven)
(define-fun .9 () (_ FP 8 24) b243)
(define-fun .10 () (_ FP 8 24) (* .3 .9 .9))
(define-fun .11 () (_ FP 8 24) (- .10))
(define-fun .12 () (_ FP 8 24) (* .3 .9 .11))
(define-fun .13 () (_ FP 11 53) ((_ asFloat 11 53) .3 .12))
(define-fun .14 () (_ FP 11 53) b261)
(define-fun .15 () (_ FP 11 53) (/ .3 .13 .14))
(define-fun .16 () (_ FP 8 24) ((_ asFloat 8 24) .3 .15))
(define-fun .17 () (_ FP 8 24) b1507)
(define-fun .18 () Bool (= .16 .17))
(define-fun .19 () Bool (not .18))
(define-fun .20 () (_ FP 8 24) (* .3 .11 .16))
(define-fun .21 () (_ FP 11 53) ((_ asFloat 11 53) .3 .20))
(define-fun .22 () (_ FP 11 53) b282)
(define-fun .23 () (_ FP 11 53) (/ .3 .21 .22))
(define-fun .24 () (_ FP 8 24) ((_ asFloat 8 24) .3 .23))
(define-fun .25 () (_ FP 8 24) b1502)
(define-fun .26 () Bool (= .24 .25))
(define-fun .27 () Bool (not .26))
(define-fun .28 () (_ FP 8 24) (* .3 .11 .24))
(define-fun .29 () (_ FP 11 53) ((_ asFloat 11 53) .3 .28))
(define-fun .30 () (_ FP 11 53) b300)
(define-fun .31 () (_ FP 11 53) (/ .3 .29 .30))
(define-fun .32 () (_ FP 8 24) ((_ asFloat 8 24) .3 .31))
(define-fun .33 () (_ FP 8 24) b1497)
(define-fun .34 () Bool (= .32 .33))
(define-fun .35 () Bool (not .34))
(define-fun .36 () (_ FP 8 24) (* .3 .11 .32))
(define-fun .37 () (_ FP 11 53) ((_ asFloat 11 53) .3 .36))
(define-fun .38 () (_ FP 11 53) b319)
(define-fun .39 () (_ FP 11 53) (/ .3 .37 .38))
(define-fun .40 () (_ FP 8 24) ((_ asFloat 8 24) .3 .39))
(define-fun .41 () (_ FP 8 24) b1492)
(define-fun .42 () Bool (= .40 .41))
(define-fun .43 () Bool (not .42))
(define-fun .44 () (_ FP 8 24) (* .3 .11 .40))
(define-fun .45 () (_ FP 11 53) ((_ asFloat 11 53) .3 .44))
(define-fun .46 () (_ FP 11 53) b338)
(define-fun .47 () (_ FP 11 53) (/ .3 .45 .46))
(define-fun .48 () (_ FP 8 24) ((_ asFloat 8 24) .3 .47))
(define-fun .49 () (_ FP 8 24) b1487)
(define-fun .50 () Bool (= .48 .49))
(define-fun .51 () Bool (not .50))
(define-fun .52 () (_ FP 8 24) (* .3 .11 .48))
(define-fun .53 () (_ FP 11 53) ((_ asFloat 11 53) .3 .52))
(define-fun .54 () (_ FP 11 53) b357)
(define-fun .55 () (_ FP 11 53) (/ .3 .53 .54))
(define-fun .56 () (_ FP 8 24) ((_ asFloat 8 24) .3 .55))
(define-fun .57 () (_ FP 8 24) b1482)
(define-fun .58 () Bool (= .56 .57))
(define-fun .59 () Bool (not .58))
(define-fun .60 () (_ FP 8 24) (* .3 .11 .56))
(define-fun .61 () (_ FP 11 53) ((_ asFloat 11 53) .3 .60))
(define-fun .62 () (_ FP 11 53) b376)
(define-fun .63 () (_ FP 11 53) (/ .3 .61 .62))
(define-fun .64 () (_ FP 8 24) ((_ asFloat 8 24) .3 .63))
(define-fun .65 () (_ FP 8 24) b1477)
(define-fun .66 () Bool (= .64 .65))
(define-fun .67 () Bool (not .66))
(define-fun .68 () (_ FP 8 24) (* .3 .11 .64))
(define-fun .69 () (_ FP 11 53) ((_ asFloat 11 53) .3 .68))
(define-fun .70 () (_ FP 11 53) b395)
(define-fun .71 () (_ FP 11 53) (/ .3 .69 .70))
(define-fun .72 () (_ FP 8 24) ((_ asFloat 8 24) .3 .71))
(define-fun .73 () (_ FP 8 24) b1472)
(define-fun .74 () Bool (= .72 .73))
(define-fun .75 () Bool (not .74))
(define-fun .76 () (_ FP 8 24) (* .3 .11 .72))
(define-fun .77 () (_ FP 11 53) ((_ asFloat 11 53) .3 .76))
(define-fun .78 () (_ FP 11 53) b414)
(define-fun .79 () (_ FP 11 53) (/ .3 .77 .78))
(define-fun .80 () (_ FP 8 24) ((_ asFloat 8 24) .3 .79))
(define-fun .81 () (_ FP 8 24) b1467)
(define-fun .82 () Bool (= .80 .81))
(define-fun .83 () Bool (not .82))
(define-fun .84 () (_ FP 8 24) (* .3 .11 .80))
(define-fun .85 () (_ FP 11 53) ((_ asFloat 11 53) .3 .84))
(define-fun .86 () (_ FP 11 53) b432)
(define-fun .87 () (_ FP 11 53) (/ .3 .85 .86))
(define-fun .88 () (_ FP 8 24) ((_ asFloat 8 24) .3 .87))
(define-fun .89 () (_ FP 8 24) b1462)
(define-fun .90 () Bool (= .88 .89))
(define-fun .91 () Bool (not .90))
(define-fun .92 () (_ FP 8 24) (* .3 .11 .88))
(define-fun .93 () (_ FP 11 53) ((_ asFloat 11 53) .3 .92))
(define-fun .94 () (_ FP 11 53) b451)
(define-fun .95 () (_ FP 11 53) (/ .3 .93 .94))
(define-fun .96 () (_ FP 8 24) ((_ asFloat 8 24) .3 .95))
(define-fun .97 () (_ FP 8 24) b1457)
(define-fun .98 () Bool (= .96 .97))
(define-fun .99 () Bool (not .98))
(define-fun .100 () (_ FP 8 24) (* .3 .11 .96))
(define-fun .101 () (_ FP 11 53) ((_ asFloat 11 53) .3 .100))
(define-fun .102 () (_ FP 11 53) b470)
(define-fun .103 () (_ FP 11 53) (/ .3 .101 .102))
(define-fun .104 () (_ FP 8 24) ((_ asFloat 8 24) .3 .103))
(define-fun .105 () (_ FP 8 24) b1452)
(define-fun .106 () Bool (= .104 .105))
(define-fun .107 () Bool (not .106))
(define-fun .108 () (_ FP 8 24) (* .3 .11 .104))
(define-fun .109 () (_ FP 11 53) ((_ asFloat 11 53) .3 .108))
(define-fun .110 () (_ FP 11 53) b489)
(define-fun .111 () (_ FP 11 53) (/ .3 .109 .110))
(define-fun .112 () (_ FP 8 24) ((_ asFloat 8 24) .3 .111))
(define-fun .113 () (_ FP 8 24) b1447)
(define-fun .114 () Bool (= .112 .113))
(define-fun .115 () Bool (not .114))
(define-fun .116 () (_ FP 8 24) (* .3 .11 .112))
(define-fun .117 () (_ FP 11 53) ((_ asFloat 11 53) .3 .116))
(define-fun .118 () (_ FP 11 53) b508)
(define-fun .119 () (_ FP 11 53) (/ .3 .117 .118))
(define-fun .120 () (_ FP 8 24) ((_ asFloat 8 24) .3 .119))
(define-fun .121 () (_ FP 8 24) b1442)
(define-fun .122 () Bool (= .120 .121))
(define-fun .123 () Bool (not .122))
(define-fun .124 () (_ FP 8 24) (* .3 .11 .120))
(define-fun .125 () (_ FP 11 53) ((_ asFloat 11 53) .3 .124))
(define-fun .126 () (_ FP 11 53) b527)
(define-fun .127 () (_ FP 11 53) (/ .3 .125 .126))
(define-fun .128 () (_ FP 8 24) ((_ asFloat 8 24) .3 .127))
(define-fun .129 () (_ FP 8 24) b1437)
(define-fun .130 () Bool (= .128 .129))
(define-fun .131 () Bool (not .130))
(define-fun .132 () (_ FP 8 24) (* .3 .11 .128))
(define-fun .133 () (_ FP 11 53) ((_ asFloat 11 53) .3 .132))
(define-fun .134 () (_ FP 11 53) b546)
(define-fun .135 () (_ FP 11 53) (/ .3 .133 .134))
(define-fun .136 () (_ FP 8 24) ((_ asFloat 8 24) .3 .135))
(define-fun .137 () (_ FP 8 24) b1432)
(define-fun .138 () Bool (= .136 .137))
(define-fun .139 () Bool (not .138))
(define-fun .140 () (_ FP 8 24) (* .3 .11 .136))
(define-fun .141 () (_ FP 11 53) ((_ asFloat 11 53) .3 .140))
(define-fun .142 () (_ FP 11 53) b565)
(define-fun .143 () (_ FP 11 53) (/ .3 .141 .142))
(define-fun .144 () (_ FP 8 24) ((_ asFloat 8 24) .3 .143))
(define-fun .145 () (_ FP 8 24) b1427)
(define-fun .146 () Bool (= .144 .145))
(define-fun .147 () Bool (not .146))
(define-fun .148 () (_ FP 8 24) (* .3 .11 .144))
(define-fun .149 () (_ FP 11 53) ((_ asFloat 11 53) .3 .148))
(define-fun .150 () (_ FP 11 53) b584)
(define-fun .151 () (_ FP 11 53) (/ .3 .149 .150))
(define-fun .152 () (_ FP 8 24) ((_ asFloat 8 24) .3 .151))
(define-fun .153 () (_ FP 8 24) b1422)
(define-fun .154 () Bool (= .152 .153))
(define-fun .155 () Bool (not .154))
(define-fun .156 () (_ FP 8 24) (* .3 .11 .152))
(define-fun .157 () (_ FP 11 53) ((_ asFloat 11 53) .3 .156))
(define-fun .158 () (_ FP 11 53) b603)
(define-fun .159 () (_ FP 11 53) (/ .3 .157 .158))
(define-fun .160 () (_ FP 8 24) ((_ asFloat 8 24) .3 .159))
(define-fun .161 () (_ FP 8 24) b1417)
(define-fun .162 () Bool (= .160 .161))
(define-fun .163 () Bool (not .162))
(define-fun .164 () (_ FP 8 24) (* .3 .11 .160))
(define-fun .165 () (_ FP 11 53) ((_ asFloat 11 53) .3 .164))
(define-fun .166 () (_ FP 11 53) b622)
(define-fun .167 () (_ FP 11 53) (/ .3 .165 .166))
(define-fun .168 () (_ FP 8 24) ((_ asFloat 8 24) .3 .167))
(define-fun .169 () (_ FP 8 24) b1412)
(define-fun .170 () Bool (= .168 .169))
(define-fun .171 () Bool (not .170))
(define-fun .172 () (_ FP 8 24) (* .3 .11 .168))
(define-fun .173 () (_ FP 11 53) ((_ asFloat 11 53) .3 .172))
(define-fun .174 () (_ FP 11 53) b640)
(define-fun .175 () (_ FP 11 53) (/ .3 .173 .174))
(define-fun .176 () (_ FP 8 24) ((_ asFloat 8 24) .3 .175))
(define-fun .177 () (_ FP 8 24) b1407)
(define-fun .178 () Bool (= .176 .177))
(define-fun .179 () Bool (not .178))
(define-fun .180 () (_ FP 8 24) (* .3 .11 .176))
(define-fun .181 () (_ FP 11 53) ((_ asFloat 11 53) .3 .180))
(define-fun .182 () (_ FP 11 53) b659)
(define-fun .183 () (_ FP 11 53) (/ .3 .181 .182))
(define-fun .184 () (_ FP 8 24) ((_ asFloat 8 24) .3 .183))
(define-fun .185 () (_ FP 8 24) b1402)
(define-fun .186 () Bool (= .184 .185))
(define-fun .187 () Bool (not .186))
(define-fun .188 () (_ FP 8 24) (* .3 .11 .184))
(define-fun .189 () (_ FP 11 53) ((_ asFloat 11 53) .3 .188))
(define-fun .190 () (_ FP 11 53) b678)
(define-fun .191 () (_ FP 11 53) (/ .3 .189 .190))
(define-fun .192 () (_ FP 8 24) ((_ asFloat 8 24) .3 .191))
(define-fun .193 () (_ FP 8 24) b1397)
(define-fun .194 () Bool (= .192 .193))
(define-fun .195 () Bool (not .194))
(define-fun .196 () (_ FP 8 24) (* .3 .11 .192))
(define-fun .197 () (_ FP 11 53) ((_ asFloat 11 53) .3 .196))
(define-fun .198 () (_ FP 11 53) b697)
(define-fun .199 () (_ FP 11 53) (/ .3 .197 .198))
(define-fun .200 () (_ FP 8 24) ((_ asFloat 8 24) .3 .199))
(define-fun .201 () (_ FP 8 24) b1392)
(define-fun .202 () Bool (= .200 .201))
(define-fun .203 () Bool (not .202))
(define-fun .204 () (_ FP 8 24) (* .3 .11 .200))
(define-fun .205 () (_ FP 11 53) ((_ asFloat 11 53) .3 .204))
(define-fun .206 () (_ FP 11 53) b716)
(define-fun .207 () (_ FP 11 53) (/ .3 .205 .206))
(define-fun .208 () (_ FP 8 24) ((_ asFloat 8 24) .3 .207))
(define-fun .209 () (_ FP 8 24) b1387)
(define-fun .210 () Bool (= .208 .209))
(define-fun .211 () Bool (not .210))
(define-fun .212 () (_ FP 8 24) b1261)
(define-fun .213 () (_ FP 8 24) b1378)
(define-fun .214 () Bool (= .212 .213))
(define-fun .215 () Bool (not .214))
(define-fun .216 () (_ FP 8 24) b1373)
(define-fun .217 () Bool (= .213 .216))
(define-fun .218 () Bool (not .217))
(define-fun .219 () (_ FP 8 24) b1368)
(define-fun .220 () Bool (= .216 .219))
(define-fun .221 () Bool (not .220))
(define-fun .222 () (_ FP 8 24) b1363)
(define-fun .223 () Bool (= .219 .222))
(define-fun .224 () Bool (not .223))
(define-fun .225 () (_ FP 8 24) b1358)
(define-fun .226 () Bool (= .222 .225))
(define-fun .227 () Bool (not .226))
(define-fun .228 () (_ FP 8 24) b1353)
(define-fun .229 () Bool (= .225 .228))
(define-fun .230 () Bool (not .229))
(define-fun .231 () (_ FP 8 24) b1348)
(define-fun .232 () Bool (= .228 .231))
(define-fun .233 () Bool (not .232))
(define-fun .234 () (_ FP 8 24) b1343)
(define-fun .235 () Bool (= .231 .234))
(define-fun .236 () Bool (not .235))
(define-fun .237 () (_ FP 8 24) b1338)
(define-fun .238 () Bool (= .234 .237))
(define-fun .239 () Bool (not .238))
(define-fun .240 () (_ FP 8 24) b1333)
(define-fun .241 () Bool (= .237 .240))
(define-fun .242 () Bool (not .241))
(define-fun .243 () (_ FP 8 24) b1328)
(define-fun .244 () Bool (= .240 .243))
(define-fun .245 () Bool (not .244))
(define-fun .246 () (_ FP 8 24) b1323)
(define-fun .247 () Bool (= .243 .246))
(define-fun .248 () Bool (not .247))
(define-fun .249 () (_ FP 8 24) b1318)
(define-fun .250 () Bool (= .246 .249))
(define-fun .251 () Bool (not .250))
(define-fun .252 () (_ FP 8 24) b1313)
(define-fun .253 () Bool (= .249 .252))
(define-fun .254 () Bool (not .253))
(define-fun .255 () (_ FP 8 24) b1308)
(define-fun .256 () Bool (= .252 .255))
(define-fun .257 () Bool (not .256))
(define-fun .258 () (_ FP 8 24) b1303)
(define-fun .259 () Bool (= .255 .258))
(define-fun .260 () Bool (not .259))
(define-fun .261 () (_ FP 8 24) b1298)
(define-fun .262 () Bool (= .258 .261))
(define-fun .263 () Bool (not .262))
(define-fun .264 () (_ FP 8 24) b1293)
(define-fun .265 () Bool (= .261 .264))
(define-fun .266 () Bool (not .265))
(define-fun .267 () (_ FP 8 24) b1288)
(define-fun .268 () Bool (= .264 .267))
(define-fun .269 () Bool (not .268))
(define-fun .270 () (_ FP 8 24) b1283)
(define-fun .271 () Bool (= .267 .270))
(define-fun .272 () Bool (not .271))
(define-fun .273 () (_ FP 8 24) b1278)
(define-fun .274 () Bool (= .270 .273))
(define-fun .275 () Bool (not .274))
(define-fun .276 () (_ FP 8 24) b1273)
(define-fun .277 () Bool (= .273 .276))
(define-fun .278 () Bool (not .277))
(define-fun .279 () (_ FP 8 24) b1268)
(define-fun .280 () Bool (= .276 .279))
(define-fun .281 () Bool (not .280))
(define-fun .282 () (_ FP 8 24) (+ .3 .9 .16))
(define-fun .283 () (_ FP 8 24) (+ .3 .24 .282))
(define-fun .284 () (_ FP 8 24) (+ .3 .32 .283))
(define-fun .285 () (_ FP 8 24) (+ .3 .40 .284))
(define-fun .286 () (_ FP 8 24) (+ .3 .48 .285))
(define-fun .287 () (_ FP 8 24) (+ .3 .56 .286))
(define-fun .288 () (_ FP 8 24) (+ .3 .64 .287))
(define-fun .289 () (_ FP 8 24) (+ .3 .72 .288))
(define-fun .290 () (_ FP 8 24) (+ .3 .80 .289))
(define-fun .291 () (_ FP 8 24) (+ .3 .88 .290))
(define-fun .292 () (_ FP 8 24) (+ .3 .96 .291))
(define-fun .293 () (_ FP 8 24) (+ .3 .104 .292))
(define-fun .294 () (_ FP 8 24) (+ .3 .112 .293))
(define-fun .295 () (_ FP 8 24) (+ .3 .120 .294))
(define-fun .296 () (_ FP 8 24) (+ .3 .128 .295))
(define-fun .297 () (_ FP 8 24) (+ .3 .136 .296))
(define-fun .298 () (_ FP 8 24) (+ .3 .144 .297))
(define-fun .299 () (_ FP 8 24) (+ .3 .152 .298))
(define-fun .300 () (_ FP 8 24) (+ .3 .160 .299))
(define-fun .301 () (_ FP 8 24) (+ .3 .168 .300))
(define-fun .302 () (_ FP 8 24) (+ .3 .176 .301))
(define-fun .303 () (_ FP 8 24) (+ .3 .184 .302))
(define-fun .304 () (_ FP 8 24) (+ .3 .192 .303))
(define-fun .305 () (_ FP 8 24) (+ .3 .200 .304))
(define-fun .306 () (_ FP 8 24) (+ .3 .208 .305))
(define-fun .307 () Bool (= .279 .306))
(define-fun .308 () Bool (not .307))
(define-fun .309 () (_ FP 8 24) b1263)
(define-fun .310 () Bool (= .212 .309))
(define-fun .311 () Bool (not .310))
(define-fun .312 () (_ FP 8 24) b1256)
(define-fun .313 () Bool (= .9 .312))
(define-fun .314 () Bool (not .313))
(define-fun .315 () (_ FP 8 24) b245)
(define-fun .316 () Bool (<= .315 .9))
(define-fun .317 () Bool (not .316))
(define-fun .318 () (_ FP 8 24) (- .9))
(define-fun .319 () Bool (= .312 .318))
(define-fun .320 () Bool (and .317 .319))
(define-fun .321 () Bool (and .314 .320))
(define-fun .322 () Bool (<= .315 .212))
(define-fun .323 () Bool (not .322))
(define-fun .324 () Bool (and .321 .323))
(define-fun .325 () (_ FP 8 24) (- .212))
(define-fun .326 () Bool (= .309 .325))
(define-fun .327 () Bool (and .324 .326))
(define-fun .328 () Bool (and .311 .327))
(define-fun .329 () (_ FP 11 53) ((_ asFloat 11 53) .3 .201))
(define-fun .330 () (_ FP 11 53) b273)
(define-fun .331 () Bool (<= .330 .329))
(define-fun .332 () Bool (not .331))
(define-fun .333 () Bool (and .328 .332))
(define-fun .334 () Bool (= .279 .305))
(define-fun .335 () Bool (and .333 .334))
(define-fun .336 () (_ FP 8 24) b842)
(define-fun .337 () Bool (<= .309 .336))
(define-fun .338 () Bool (not .337))
(define-fun .339 () Bool (and .335 .338))
(define-fun .340 () (_ FP 11 53) ((_ asFloat 11 53) .3 .312))
(define-fun .341 () (_ FP 11 53) b885)
(define-fun .342 () Bool (<= .340 .341))
(define-fun .343 () Bool (and .339 .342))
(define-fun .344 () Bool (and .308 .343))
(define-fun .345 () (_ FP 11 53) ((_ asFloat 11 53) .3 .193))
(define-fun .346 () Bool (<= .330 .345))
(define-fun .347 () Bool (not .346))
(define-fun .348 () Bool (and .344 .347))
(define-fun .349 () Bool (= .276 .304))
(define-fun .350 () Bool (and .348 .349))
(define-fun .351 () Bool (and .281 .350))
(define-fun .352 () (_ FP 11 53) ((_ asFloat 11 53) .3 .185))
(define-fun .353 () Bool (<= .330 .352))
(define-fun .354 () Bool (not .353))
(define-fun .355 () Bool (and .351 .354))
(define-fun .356 () Bool (= .273 .303))
(define-fun .357 () Bool (and .355 .356))
(define-fun .358 () Bool (and .278 .357))
(define-fun .359 () (_ FP 11 53) ((_ asFloat 11 53) .3 .177))
(define-fun .360 () Bool (<= .330 .359))
(define-fun .361 () Bool (not .360))
(define-fun .362 () Bool (and .358 .361))
(define-fun .363 () Bool (= .270 .302))
(define-fun .364 () Bool (and .362 .363))
(define-fun .365 () Bool (and .275 .364))
(define-fun .366 () (_ FP 11 53) ((_ asFloat 11 53) .3 .169))
(define-fun .367 () Bool (<= .330 .366))
(define-fun .368 () Bool (not .367))
(define-fun .369 () Bool (and .365 .368))
(define-fun .370 () Bool (= .267 .301))
(define-fun .371 () Bool (and .369 .370))
(define-fun .372 () Bool (and .272 .371))
(define-fun .373 () (_ FP 11 53) ((_ asFloat 11 53) .3 .161))
(define-fun .374 () Bool (<= .330 .373))
(define-fun .375 () Bool (not .374))
(define-fun .376 () Bool (and .372 .375))
(define-fun .377 () Bool (= .264 .300))
(define-fun .378 () Bool (and .376 .377))
(define-fun .379 () Bool (and .269 .378))
(define-fun .380 () (_ FP 11 53) ((_ asFloat 11 53) .3 .153))
(define-fun .381 () Bool (<= .330 .380))
(define-fun .382 () Bool (not .381))
(define-fun .383 () Bool (and .379 .382))
(define-fun .384 () Bool (= .261 .299))
(define-fun .385 () Bool (and .383 .384))
(define-fun .386 () Bool (and .266 .385))
(define-fun .387 () (_ FP 11 53) ((_ asFloat 11 53) .3 .145))
(define-fun .388 () Bool (<= .330 .387))
(define-fun .389 () Bool (not .388))
(define-fun .390 () Bool (and .386 .389))
(define-fun .391 () Bool (= .258 .298))
(define-fun .392 () Bool (and .390 .391))
(define-fun .393 () Bool (and .263 .392))
(define-fun .394 () (_ FP 11 53) ((_ asFloat 11 53) .3 .137))
(define-fun .395 () Bool (<= .330 .394))
(define-fun .396 () Bool (not .395))
(define-fun .397 () Bool (and .393 .396))
(define-fun .398 () Bool (= .255 .297))
(define-fun .399 () Bool (and .397 .398))
(define-fun .400 () Bool (and .260 .399))
(define-fun .401 () (_ FP 11 53) ((_ asFloat 11 53) .3 .129))
(define-fun .402 () Bool (<= .330 .401))
(define-fun .403 () Bool (not .402))
(define-fun .404 () Bool (and .400 .403))
(define-fun .405 () Bool (= .252 .296))
(define-fun .406 () Bool (and .404 .405))
(define-fun .407 () Bool (and .257 .406))
(define-fun .408 () (_ FP 11 53) ((_ asFloat 11 53) .3 .121))
(define-fun .409 () Bool (<= .330 .408))
(define-fun .410 () Bool (not .409))
(define-fun .411 () Bool (and .407 .410))
(define-fun .412 () Bool (= .249 .295))
(define-fun .413 () Bool (and .411 .412))
(define-fun .414 () Bool (and .254 .413))
(define-fun .415 () (_ FP 11 53) ((_ asFloat 11 53) .3 .113))
(define-fun .416 () Bool (<= .330 .415))
(define-fun .417 () Bool (not .416))
(define-fun .418 () Bool (and .414 .417))
(define-fun .419 () Bool (= .246 .294))
(define-fun .420 () Bool (and .418 .419))
(define-fun .421 () Bool (and .251 .420))
(define-fun .422 () (_ FP 11 53) ((_ asFloat 11 53) .3 .105))
(define-fun .423 () Bool (<= .330 .422))
(define-fun .424 () Bool (not .423))
(define-fun .425 () Bool (and .421 .424))
(define-fun .426 () Bool (= .243 .293))
(define-fun .427 () Bool (and .425 .426))
(define-fun .428 () Bool (and .248 .427))
(define-fun .429 () (_ FP 11 53) ((_ asFloat 11 53) .3 .97))
(define-fun .430 () Bool (<= .330 .429))
(define-fun .431 () Bool (not .430))
(define-fun .432 () Bool (and .428 .431))
(define-fun .433 () Bool (= .240 .292))
(define-fun .434 () Bool (and .432 .433))
(define-fun .435 () Bool (and .245 .434))
(define-fun .436 () (_ FP 11 53) ((_ asFloat 11 53) .3 .89))
(define-fun .437 () Bool (<= .330 .436))
(define-fun .438 () Bool (not .437))
(define-fun .439 () Bool (and .435 .438))
(define-fun .440 () Bool (= .237 .291))
(define-fun .441 () Bool (and .439 .440))
(define-fun .442 () Bool (and .242 .441))
(define-fun .443 () (_ FP 11 53) ((_ asFloat 11 53) .3 .81))
(define-fun .444 () Bool (<= .330 .443))
(define-fun .445 () Bool (not .444))
(define-fun .446 () Bool (and .442 .445))
(define-fun .447 () Bool (= .234 .290))
(define-fun .448 () Bool (and .446 .447))
(define-fun .449 () Bool (and .239 .448))
(define-fun .450 () (_ FP 11 53) ((_ asFloat 11 53) .3 .73))
(define-fun .451 () Bool (<= .330 .450))
(define-fun .452 () Bool (not .451))
(define-fun .453 () Bool (and .449 .452))
(define-fun .454 () Bool (= .231 .289))
(define-fun .455 () Bool (and .453 .454))
(define-fun .456 () Bool (and .236 .455))
(define-fun .457 () (_ FP 11 53) ((_ asFloat 11 53) .3 .65))
(define-fun .458 () Bool (<= .330 .457))
(define-fun .459 () Bool (not .458))
(define-fun .460 () Bool (and .456 .459))
(define-fun .461 () Bool (= .228 .288))
(define-fun .462 () Bool (and .460 .461))
(define-fun .463 () Bool (and .233 .462))
(define-fun .464 () (_ FP 11 53) ((_ asFloat 11 53) .3 .57))
(define-fun .465 () Bool (<= .330 .464))
(define-fun .466 () Bool (not .465))
(define-fun .467 () Bool (and .463 .466))
(define-fun .468 () Bool (= .225 .287))
(define-fun .469 () Bool (and .467 .468))
(define-fun .470 () Bool (and .230 .469))
(define-fun .471 () (_ FP 11 53) ((_ asFloat 11 53) .3 .49))
(define-fun .472 () Bool (<= .330 .471))
(define-fun .473 () Bool (not .472))
(define-fun .474 () Bool (and .470 .473))
(define-fun .475 () Bool (= .222 .286))
(define-fun .476 () Bool (and .474 .475))
(define-fun .477 () Bool (and .227 .476))
(define-fun .478 () (_ FP 11 53) ((_ asFloat 11 53) .3 .41))
(define-fun .479 () Bool (<= .330 .478))
(define-fun .480 () Bool (not .479))
(define-fun .481 () Bool (and .477 .480))
(define-fun .482 () Bool (= .219 .285))
(define-fun .483 () Bool (and .481 .482))
(define-fun .484 () Bool (and .224 .483))
(define-fun .485 () (_ FP 11 53) ((_ asFloat 11 53) .3 .33))
(define-fun .486 () Bool (<= .330 .485))
(define-fun .487 () Bool (not .486))
(define-fun .488 () Bool (and .484 .487))
(define-fun .489 () Bool (= .216 .284))
(define-fun .490 () Bool (and .488 .489))
(define-fun .491 () Bool (and .221 .490))
(define-fun .492 () (_ FP 11 53) ((_ asFloat 11 53) .3 .25))
(define-fun .493 () Bool (<= .330 .492))
(define-fun .494 () Bool (not .493))
(define-fun .495 () Bool (and .491 .494))
(define-fun .496 () Bool (= .213 .283))
(define-fun .497 () Bool (and .495 .496))
(define-fun .498 () Bool (and .218 .497))
(define-fun .499 () (_ FP 11 53) ((_ asFloat 11 53) .3 .17))
(define-fun .500 () Bool (<= .330 .499))
(define-fun .501 () Bool (not .500))
(define-fun .502 () Bool (and .498 .501))
(define-fun .503 () Bool (= .212 .282))
(define-fun .504 () Bool (and .502 .503))
(define-fun .505 () Bool (and .215 .504))
(define-fun .506 () Bool (<= .315 .208))
(define-fun .507 () Bool (not .506))
(define-fun .508 () Bool (and .505 .507))
(define-fun .509 () (_ FP 8 24) (- .208))
(define-fun .510 () Bool (= .209 .509))
(define-fun .511 () Bool (and .508 .510))
(define-fun .512 () Bool (and .211 .511))
(define-fun .513 () Bool (<= .315 .200))
(define-fun .514 () Bool (not .513))
(define-fun .515 () Bool (and .512 .514))
(define-fun .516 () (_ FP 8 24) (- .200))
(define-fun .517 () Bool (= .201 .516))
(define-fun .518 () Bool (and .515 .517))
(define-fun .519 () Bool (and .203 .518))
(define-fun .520 () Bool (<= .315 .192))
(define-fun .521 () Bool (not .520))
(define-fun .522 () Bool (and .519 .521))
(define-fun .523 () (_ FP 8 24) (- .192))
(define-fun .524 () Bool (= .193 .523))
(define-fun .525 () Bool (and .522 .524))
(define-fun .526 () Bool (and .195 .525))
(define-fun .527 () Bool (<= .315 .184))
(define-fun .528 () Bool (not .527))
(define-fun .529 () Bool (and .526 .528))
(define-fun .530 () (_ FP 8 24) (- .184))
(define-fun .531 () Bool (= .185 .530))
(define-fun .532 () Bool (and .529 .531))
(define-fun .533 () Bool (and .187 .532))
(define-fun .534 () Bool (<= .315 .176))
(define-fun .535 () Bool (not .534))
(define-fun .536 () Bool (and .533 .535))
(define-fun .537 () (_ FP 8 24) (- .176))
(define-fun .538 () Bool (= .177 .537))
(define-fun .539 () Bool (and .536 .538))
(define-fun .540 () Bool (and .179 .539))
(define-fun .541 () Bool (<= .315 .168))
(define-fun .542 () Bool (not .541))
(define-fun .543 () Bool (and .540 .542))
(define-fun .544 () (_ FP 8 24) (- .168))
(define-fun .545 () Bool (= .169 .544))
(define-fun .546 () Bool (and .543 .545))
(define-fun .547 () Bool (and .171 .546))
(define-fun .548 () Bool (<= .315 .160))
(define-fun .549 () Bool (not .548))
(define-fun .550 () Bool (and .547 .549))
(define-fun .551 () (_ FP 8 24) (- .160))
(define-fun .552 () Bool (= .161 .551))
(define-fun .553 () Bool (and .550 .552))
(define-fun .554 () Bool (and .163 .553))
(define-fun .555 () Bool (<= .315 .152))
(define-fun .556 () Bool (not .555))
(define-fun .557 () Bool (and .554 .556))
(define-fun .558 () (_ FP 8 24) (- .152))
(define-fun .559 () Bool (= .153 .558))
(define-fun .560 () Bool (and .557 .559))
(define-fun .561 () Bool (and .155 .560))
(define-fun .562 () Bool (<= .315 .144))
(define-fun .563 () Bool (not .562))
(define-fun .564 () Bool (and .561 .563))
(define-fun .565 () (_ FP 8 24) (- .144))
(define-fun .566 () Bool (= .145 .565))
(define-fun .567 () Bool (and .564 .566))
(define-fun .568 () Bool (and .147 .567))
(define-fun .569 () Bool (<= .315 .136))
(define-fun .570 () Bool (not .569))
(define-fun .571 () Bool (and .568 .570))
(define-fun .572 () (_ FP 8 24) (- .136))
(define-fun .573 () Bool (= .137 .572))
(define-fun .574 () Bool (and .571 .573))
(define-fun .575 () Bool (and .139 .574))
(define-fun .576 () Bool (<= .315 .128))
(define-fun .577 () Bool (not .576))
(define-fun .578 () Bool (and .575 .577))
(define-fun .579 () (_ FP 8 24) (- .128))
(define-fun .580 () Bool (= .129 .579))
(define-fun .581 () Bool (and .578 .580))
(define-fun .582 () Bool (and .131 .581))
(define-fun .583 () Bool (<= .315 .120))
(define-fun .584 () Bool (not .583))
(define-fun .585 () Bool (and .582 .584))
(define-fun .586 () (_ FP 8 24) (- .120))
(define-fun .587 () Bool (= .121 .586))
(define-fun .588 () Bool (and .585 .587))
(define-fun .589 () Bool (and .123 .588))
(define-fun .590 () Bool (<= .315 .112))
(define-fun .591 () Bool (not .590))
(define-fun .592 () Bool (and .589 .591))
(define-fun .593 () (_ FP 8 24) (- .112))
(define-fun .594 () Bool (= .113 .593))
(define-fun .595 () Bool (and .592 .594))
(define-fun .596 () Bool (and .115 .595))
(define-fun .597 () Bool (<= .315 .104))
(define-fun .598 () Bool (not .597))
(define-fun .599 () Bool (and .596 .598))
(define-fun .600 () (_ FP 8 24) (- .104))
(define-fun .601 () Bool (= .105 .600))
(define-fun .602 () Bool (and .599 .601))
(define-fun .603 () Bool (and .107 .602))
(define-fun .604 () Bool (<= .315 .96))
(define-fun .605 () Bool (not .604))
(define-fun .606 () Bool (and .603 .605))
(define-fun .607 () (_ FP 8 24) (- .96))
(define-fun .608 () Bool (= .97 .607))
(define-fun .609 () Bool (and .606 .608))
(define-fun .610 () Bool (and .99 .609))
(define-fun .611 () Bool (<= .315 .88))
(define-fun .612 () Bool (not .611))
(define-fun .613 () Bool (and .610 .612))
(define-fun .614 () (_ FP 8 24) (- .88))
(define-fun .615 () Bool (= .89 .614))
(define-fun .616 () Bool (and .613 .615))
(define-fun .617 () Bool (and .91 .616))
(define-fun .618 () Bool (<= .315 .80))
(define-fun .619 () Bool (not .618))
(define-fun .620 () Bool (and .617 .619))
(define-fun .621 () (_ FP 8 24) (- .80))
(define-fun .622 () Bool (= .81 .621))
(define-fun .623 () Bool (and .620 .622))
(define-fun .624 () Bool (and .83 .623))
(define-fun .625 () Bool (<= .315 .72))
(define-fun .626 () Bool (not .625))
(define-fun .627 () Bool (and .624 .626))
(define-fun .628 () (_ FP 8 24) (- .72))
(define-fun .629 () Bool (= .73 .628))
(define-fun .630 () Bool (and .627 .629))
(define-fun .631 () Bool (and .75 .630))
(define-fun .632 () Bool (<= .315 .64))
(define-fun .633 () Bool (not .632))
(define-fun .634 () Bool (and .631 .633))
(define-fun .635 () (_ FP 8 24) (- .64))
(define-fun .636 () Bool (= .65 .635))
(define-fun .637 () Bool (and .634 .636))
(define-fun .638 () Bool (and .67 .637))
(define-fun .639 () Bool (<= .315 .56))
(define-fun .640 () Bool (not .639))
(define-fun .641 () Bool (and .638 .640))
(define-fun .642 () (_ FP 8 24) (- .56))
(define-fun .643 () Bool (= .57 .642))
(define-fun .644 () Bool (and .641 .643))
(define-fun .645 () Bool (and .59 .644))
(define-fun .646 () Bool (<= .315 .48))
(define-fun .647 () Bool (not .646))
(define-fun .648 () Bool (and .645 .647))
(define-fun .649 () (_ FP 8 24) (- .48))
(define-fun .650 () Bool (= .49 .649))
(define-fun .651 () Bool (and .648 .650))
(define-fun .652 () Bool (and .51 .651))
(define-fun .653 () Bool (<= .315 .40))
(define-fun .654 () Bool (not .653))
(define-fun .655 () Bool (and .652 .654))
(define-fun .656 () (_ FP 8 24) (- .40))
(define-fun .657 () Bool (= .41 .656))
(define-fun .658 () Bool (and .655 .657))
(define-fun .659 () Bool (and .43 .658))
(define-fun .660 () Bool (<= .315 .32))
(define-fun .661 () Bool (not .660))
(define-fun .662 () Bool (and .659 .661))
(define-fun .663 () (_ FP 8 24) (- .32))
(define-fun .664 () Bool (= .33 .663))
(define-fun .665 () Bool (and .662 .664))
(define-fun .666 () Bool (and .35 .665))
(define-fun .667 () Bool (<= .315 .24))
(define-fun .668 () Bool (not .667))
(define-fun .669 () Bool (and .666 .668))
(define-fun .670 () (_ FP 8 24) (- .24))
(define-fun .671 () Bool (= .25 .670))
(define-fun .672 () Bool (and .669 .671))
(define-fun .673 () Bool (and .27 .672))
(define-fun .674 () Bool (<= .315 .16))
(define-fun .675 () Bool (not .674))
(define-fun .676 () Bool (and .673 .675))
(define-fun .677 () (_ FP 8 24) (- .16))
(define-fun .678 () Bool (= .17 .677))
(define-fun .679 () Bool (and .676 .678))
(define-fun .680 () (_ FP 11 53) ((_ asFloat 11 53) .3 .209))
(define-fun .681 () Bool (<= .330 .680))
(define-fun .682 () Bool (not .681))
(define-fun .683 () Bool (and .679 .682))
(define-fun .684 () Bool (and .19 .683))
(assert .684)
(check-sat)
